# Solution for model r3_t9_m7_3
# Finished Task: 5 / 9
# Makespan: 472.0, Total Distance: 418.0, Total Time: 0.0156
# R O S F
0 0 3 0.0 0.0
1 1 10 0.0 0.0
2 2 9 0.0 0.0
3 0 4 383.0 421.0
4 0 -1 451.0 472.0
5 -1 -1 -1.0 -1.0
6 -1 -1 -1.0 -1.0
7 -1 -1 -1.0 -1.0
8 1 -1 411.0 439.0
9 2 -1 317.0 349.0
10 1 8 297.0 317.0
11 -1 -1 -1.0 -1.0
